# Solution for model F-JSSP-SDST
# Objective value = 2078
B0(16) 1
B1(18) 0
B2(24) 0
B3(21) 0
B4(18) 1
B5(16) 0
B6(20) 1
B7(19) 0
B8(11) 0
B9(16) 0
B10(20) 1
B11(20) 0
B12(17) 1
B13(21) 0
B14(18) 0
B15(12) 1
B16(10) 0
B17(16) 0
B18(18) 1
B19(13) 1
B20(23) 0
B21(21) 0
B22(20) 0
B23(19) 1
B24(13) 0
B25(16) 0
B26(18) 1
B27(22) 1
B28(20) 0
B29(21) 0
B30(13) 1
B31(18) 0
B32(20) 0
B33(16) 1
B34(21) 0
B35(22) 0
B36(18) 1
B37(17) 0
B38(12) 1
B39(19) 0
B40(21) 0
B41(21) 1
B42(21) 1
B43(21) 0
B44(18) 0
B45(17) 1
B46(12) 0
B47(10) 0
B48(0) 0
B49(0) 0
B50(0) 0
B51(4) 1
B52(4) 0
B53(0) 0
B54(4) 0
B55(2) 0
B56(0) 0
B57(4) 1
B58(2) 0
B59(0) 0
B60(6) 1
B61(2) 0
B62(0) 0
B63(4) 1
B64(2) 0
B65(0) 0
B66(0) 0
B67(0) 0
B68(0) 0
B69(2) 0
B70(4) 1
B71(0) 0
B72(4) 1
B73(2) 1
B74(2) 0
B75(4) 1
B76(0) 0
B77(2) 0
B78(4) 1
B79(2) 0
B80(0) 0
B81(4) 1
B82(2) 0
B83(0) 0
B84(0) 0
B85(0) 0
B86(0) 0
B87(0) 0
B88(2) 1
B89(4) 1
B90(0) 0
B91(4) 1
B92(4) 1
B93(0) 0
B94(2) 1
B95(2) 0
B96(0) 0
B97(4) 0
B98(2) 0
B99(2) 1
B100(4) 1
B101(4) 0
B102(0) 0
B103(0) 0
B104(0) 0
B105(0) 0
B106(0) 0
B107(0) 0
B108(2) 0
B109(2) 0
B110(0) 0
B111(2) 1
B112(2) 0
B113(0) 0
B114(4) 1
B115(2) 0
B116(0) 0
B117(2) 0
B118(2) 0
B119(0) 0
B120(0) 0
B121(0) 0
B122(0) 0
B123(0) 0
B124(0) 0
B125(0) 0
B126(2) 1
B127(4) 0
B128(2) 0
B129(2) 1
B130(2) 0
B131(2) 1
B132(4) 1
B133(4) 0
B134(0) 0
B135(6) 0
B136(4) 1
B137(0) 0
B138(0) 0
B139(0) 0
B140(0) 0
B141(0) 0
B142(0) 0
B143(0) 0
B144(0) 0
B145(2) 0
B146(4) 1
B147(0) 0
B148(2) 1
B149(2) 0
B150(0) 0
B151(2) 1
B152(4) 1
B153(0) 0
B154(2) 1
B155(6) 0
B156(0) 0
B157(0) 0
B158(0) 0
B159(0) 0
B160(0) 0
B161(0) 0
B162(0) 0
B163(0) 0
B164(0) 0
B165(4) 0
B166(0) 0
B167(0) 0
B168(4) 1
B169(0) 0
B170(0) 0
B171(2) 1
B172(0) 0
B173(0) 0
B174(0) 0
B175(0) 0
B176(0) 0
B177(0) 0
B178(0) 0
B179(0) 0
B180(0) 0
B181(0) 0
B182(0) 0
B183(0) 0
B184(2) 0
B185(2) 0
B186(2) 1
B187(4) 0
B188(0) 0
B189(4) 0
B190(4) 0
B191(2) 0
B192(0) 0
B193(0) 0
B194(0) 0
B195(0) 0
B196(0) 0
B197(0) 0
B198(0) 0
B199(0) 0
B200(0) 0
B201(0) 0
B202(2) 1
B203(4) 0
B204(0) 0
B205(4) 1
B206(4) 1
B207(2) 0
B208(4) 1
B209(4) 0
B210(0) 0
B211(0) 0
B212(0) 0
B213(0) 0
B214(0) 0
B215(0) 0
B216(0) 0
B217(0) 0
B218(0) 0
B219(0) 0
B220(0) 0
B221(0) 0
B222(4) 0
B223(0) 0
B224(0) 0
B225(2) 0
B226(0) 0
B227(0) 0
B228(0) 0
B229(0) 0
B230(0) 0
B231(0) 0
B232(0) 0
B233(0) 0
B234(0) 0
B235(0) 0
B236(0) 0
B237(0) 0
B238(0) 0
B239(0) 0
B240(2) 0
B241(4) 0
B242(2) 0
B243(2) 1
B244(4) 0
B245(2) 0
B246(0) 0
B247(0) 0
B248(0) 0
B249(0) 0
B250(0) 0
B251(0) 0
B252(0) 0
B253(0) 0
B254(0) 0
B255(0) 0
B256(0) 0
B257(0) 0
B258(0) 0
B259(2) 1
B260(2) 1
B261(2) 0
B262(2) 1
B263(2) 0
B264(0) 0
B265(0) 0
B266(0) 0
B267(0) 0
B268(0) 0
B269(0) 0
B270(0) 0
B271(0) 0
B272(0) 0
B273(0) 0
B274(0) 0
B275(0) 0
B276(0) 0
B277(0) 0
B278(0) 0
B279(4) 0
B280(2) 0
B281(0) 0
B282(0) 0
B283(0) 0
B284(0) 0
B285(0) 0
B286(0) 0
B287(0) 0
B288(0) 0
B289(0) 0
B290(0) 0
B291(0) 0
B292(0) 0
B293(0) 0
B294(0) 0
B295(0) 0
B296(0) 0
B297(4) 1
B298(6) 1
B299(2) 0
B300(0) 0
B301(0) 0
B302(0) 0
B303(0) 0
B304(0) 0
B305(0) 0
B306(0) 0
B307(0) 0
B308(0) 0
B309(0) 0
B310(0) 0
B311(0) 0
B312(0) 0
B313(0) 0
B314(0) 0
B315(0) 0
B316(2) 0
B317(4) 1
B318(0) 0
B319(0) 0
B320(0) 0
B321(0) 0
B322(0) 0
B323(0) 0
B324(0) 0
B325(0) 0
B326(0) 0
B327(0) 0
B328(0) 0
B329(0) 0
B330(0) 0
B331(0) 0
B332(0) 0
B333(0) 0
B334(0) 0
B335(0) 0
B336(0) 0
B337(0) 0
B338(0) 0
B339(0) 0
B340(0) 0
B341(0) 0
B342(0) 0
B343(0) 0
B344(0) 0
B345(0) 0
B346(0) 0
B347(0) 0
B348(0) 0
B349(0) 0
B350(0) 0
B351(0) 0
B352(0) 0
B353(0) 0
B354(0) 0
B355(0) 0
B356(0) 0
B357(0) 0
B358(0) 0
B359(0) 0
B360(0) 0
B361(0) 0
B362(0) 0
B363(0) 0
B364(0) 0
B365(0) 0
B366(0) 0
B367(0) 0
B368(0) 0
B369(0) 0
B370(0) 0
B371(0) 0
I372(16) 142
I373(18) 0
I374(24) 0
I375(24) 0
I376(20) 289
I377(18) 0
I378(22) 419
I379(22) 0
I380(14) 0
I381(17) 0
I382(21) 0
I383(22) 0
I384(20) 169
I385(24) 0
I386(21) 0
I387(15) 272
I388(13) 0
I389(16) 0
I390(18) 11
I391(14) 73
I392(24) 0
I393(22) 0
I394(22) 0
I395(22) 218
I396(16) 0
I397(16) 0
I398(18) 88
I399(23) 166
I400(21) 0
I401(23) 0
I402(15) 416
I403(19) 0
I404(21) 0
I405(17) 0
I406(23) 0
I407(25) 0
I408(21) 128
I409(20) 0
I410(16) 175
I411(20) 0
I412(22) 0
I413(22) 0
I414(24) 169
I415(24) 0
I416(22) 0
I417(20) 331
I418(16) 0
I419(14) 0
I420(1) 2078
B421(2) 1
B422(2) 0
B423(2) 0
B424(2) 0
B425(2) 1
B426(2) 0
B427(4) 1
B428(4) 0
B429(4) 0
B430(2) 0
B431(2) 1
B432(2) 0
B433(2) 1
B434(2) 0
B435(4) 0
B436(4) 1
B437(4) 0
B438(2) 0
B439(2) 1
B440(2) 1
B441(2) 0
B442(2) 0
B443(4) 0
B444(4) 1
B445(4) 0
B446(2) 0
B447(2) 1
B448(2) 1
B449(2) 0
B450(4) 0
B451(4) 1
B452(2) 0
B453(2) 0
B454(2) 1
B455(2) 0
B456(2) 0
B457(2) 1
B458(4) 0
B459(4) 1
B460(2) 0
B461(2) 0
B462(2) 1
B463(2) 1
B464(2) 0
B465(2) 0
B466(4) 1
B467(4) 0
B468(4) 0
